32	0

0	1	2
6	1	3
2	1	4
10	1	5
3	1	6
10	1	7
10	1	8
8	1	9
4	1	10
9	1	11
10	1	12
10	1	13
10	1	14
5	1	15
8	1	16
4	1	17
8	1	18
10	1	19
4	1	20
10	1	21
10	1	22
5	1	23
5	1	24
6	1	25
4	1	26
4	1	27
3	1	28
3	1	29
2	1	30
2	1	31
1	1	32
0	0
